results_rootrelaxation/bin012_070_010.srr.sol
solution status: optimal solution found
objective value:                     7.41860465116279
_var768_                           0.0697674418604651 	(obj:1)
_var775_                            0.395348837209303 	(obj:1)
_var777_                            0.255813953488371 	(obj:0)
_var782_                           0.0465116279069775 	(obj:1)
_var794_                            0.116279069767442 	(obj:1)
_var795_                             0.13953488372093 	(obj:1)
_var837_                            0.325581395348837 	(obj:1)
_var838_                            0.348837209302325 	(obj:0)
_var847_                           0.0465116279069766 	(obj:0)
_var857_                           0.0232558139534867 	(obj:2)
_var859_                           0.0232558139534879 	(obj:1)
_var860_                           0.0232558139534871 	(obj:2)
_var863_                           0.0697674418604645 	(obj:1)
_var864_                           0.0697674418604664 	(obj:0)
_var867_                            0.372093023255814 	(obj:1)
_var869_                           0.0465116279069766 	(obj:0)
_var876_                            0.255813953488372 	(obj:0)
_var881_                            0.395348837209301 	(obj:1)
_var894_                            0.348837209302324 	(obj:1)
_var898_                            0.162790697674419 	(obj:0)
_var899_                            0.418604651162791 	(obj:1)
_var902_                            0.534883720930233 	(obj:0)
_var907_                            0.534883720930233 	(obj:1)
_var911_                           0.0232558139534877 	(obj:2)
_var915_                            0.139534883720931 	(obj:2)
_var917_                            0.418604651162791 	(obj:0)
_var920_                            0.209302325581396 	(obj:0)
_var921_                           0.0697674418604652 	(obj:1)
_var925_                            0.116279069767443 	(obj:1)
_var927_                            0.348837209302326 	(obj:2)
_var928_                            0.465116279069766 	(obj:1)
_var935_                            0.372093023255814 	(obj:0)
_var937_                             0.16279069767442 	(obj:1)
_var939_                            0.186046511627906 	(obj:0)
_var940_                            0.116279069767442 	(obj:0)
_var941_                            0.325581395348837 	(obj:1)
_var943_                            0.069767441860465 	(obj:0)
_var950_                            0.418604651162789 	(obj:0)
_var951_                            0.186046511627907 	(obj:1)
_var952_                            0.511627906976744 	(obj:0)
_var953_                           0.0930232558139539 	(obj:1)
_var954_                             0.13953488372093 	(obj:1)
_var958_                            0.186046511627907 	(obj:0)
_var959_                           0.0697674418604661 	(obj:2)
_var967_                           0.0465116279069766 	(obj:1)
_var968_                           0.0697674418604661 	(obj:1)
_var972_                            0.325581395348837 	(obj:0)
_var975_                            0.232558139534883 	(obj:2)
_var979_                            0.232558139534885 	(obj:1)
_var982_                            0.162790697674419 	(obj:1)
_var985_                            0.116279069767443 	(obj:1)
_var988_                           0.0465116279069775 	(obj:3)
_var990_                            0.116279069767442 	(obj:1)
