results_rootrelaxation/bin012_070_010.srr.log
SCIP version 8.0.3.5 [precision: 8 byte] [memory: block] [mode: optimized] [LP solver: Soplex 6.0.1.3] [GitHash: 438792519e]
Copyright (c) 2002-2023 Zuse Institute Berlin (ZIB)

External libraries: 
  Readline 8.1         GNU library for command line editing (gnu.org/s/readline)
  Soplex 6.0.1.3       Linear Programming Solver developed at Zuse Institute Berlin (soplex.zib.de) [GitHash: 713be0fe]
  CppAD 20180000.0     Algorithmic Differentiation of C++ algorithms developed by B. Bell (github.com/coin-or/CppAD)
  ZLIB 1.2.11          General purpose compression library by J. Gailly and M. Adler (zlib.net)
  bliss 0.77           Computing Graph Automorphism Groups by T. Junttila and P. Kaski (www.tcs.hut.fi/Software/bliss/)

user parameter file <scip.set> not found - using default parameters

srr/relaxation = TRUE

read problem <instances/bin012_070_010.srr>
============

Original problem: 
original problem has 0 variables (0 bin, 0 int, 0 impl, 0 cont) and 77 constraints

presolving:
presolving (1 rounds: 1 fast, 1 medium, 1 exhaustive):
 0 deleted vars, 0 deleted constraints, 0 added constraints, 0 tightened bounds, 0 added holes, 0 changed sides, 0 changed coefficients
 0 implications, 0 cliques
presolved problem has 0 variables (0 bin, 0 int, 0 impl, 0 cont) and 77 constraints
     77 constraints of type <linear>
Presolving Time: 0.00

 time | node  | left  |LP iter|LP it/n|mem/heur|mdpt |vars |cons |rows |cuts |sepa|confs|strbr|  dualbound   | primalbound  |  gap   | compl. 
  0.0s|     1 |     0 |     1 |     - |   710k |   0 |   1 |  77 |  77 |   0 |  0 |   0 |   0 |      --      |      --      |    Inf | unknown
r 0.1s|     1 |     0 |  1244 |     - |simplero|   0 | 738 |  77 |  77 |   0 |  0 |   0 |   0 |      --      | 2.876626e+01 |    Inf | unknown
r 0.1s|     1 |     0 |  1281 |     - |simplero|   0 | 749 |  77 |  77 |   0 |  0 |   0 |   0 |      --      | 2.653443e+01 |    Inf | unknown
r 0.1s|     1 |     0 |  1352 |     - |simplero|   0 | 760 |  77 |  77 |   0 |  0 |   0 |   0 |      --      | 2.370230e+01 |    Inf | unknown
r 0.1s|     1 |     0 |  1377 |     - |simplero|   0 | 771 |  77 |  77 |   0 |  0 |   0 |   0 |      --      | 2.241146e+01 |    Inf | unknown
r 0.1s|     1 |     0 |  1386 |     - |simplero|   0 | 771 |  77 |  77 |   0 |  0 |   0 |   0 |      --      | 2.230553e+01 |    Inf | unknown
r 0.1s|     1 |     0 |  1394 |     - |simplero|   0 | 771 |  77 |  77 |   0 |  0 |   0 |   0 |      --      | 2.227204e+01 |    Inf | unknown
r 0.1s|     1 |     0 |  1456 |     - |simplero|   0 | 782 |  77 |  77 |   0 |  0 |   0 |   0 |      --      | 2.025206e+01 |    Inf | unknown
r 0.1s|     1 |     0 |  1461 |     - |simplero|   0 | 782 |  77 |  77 |   0 |  0 |   0 |   0 |      --      | 2.023658e+01 |    Inf | unknown
r 0.1s|     1 |     0 |  1463 |     - |simplero|   0 | 782 |  77 |  77 |   0 |  0 |   0 |   0 |      --      | 2.023457e+01 |    Inf | unknown
r 0.1s|     1 |     0 |  1486 |     - |simplero|   0 | 793 |  77 |  77 |   0 |  0 |   0 |   0 |      --      | 1.952570e+01 |    Inf | unknown
r 0.1s|     1 |     0 |  1521 |     - |simplero|   0 | 793 |  77 |  77 |   0 |  0 |   0 |   0 |      --      | 1.817072e+01 |    Inf | unknown
r 0.1s|     1 |     0 |  1541 |     - |simplero|   0 | 793 |  77 |  77 |   0 |  0 |   0 |   0 |      --      | 1.801406e+01 |    Inf | unknown
r 0.1s|     1 |     0 |  1603 |     - |simplero|   0 | 804 |  77 |  77 |   0 |  0 |   0 |   0 |      --      | 1.555177e+01 |    Inf | unknown
r 0.1s|     1 |     0 |  1629 |     - |simplero|   0 | 804 |  77 |  77 |   0 |  0 |   0 |   0 |      --      | 1.524275e+01 |    Inf | unknown
 time | node  | left  |LP iter|LP it/n|mem/heur|mdpt |vars |cons |rows |cuts |sepa|confs|strbr|  dualbound   | primalbound  |  gap   | compl. 
r 0.1s|     1 |     0 |  1636 |     - |simplero|   0 | 804 |  77 |  77 |   0 |  0 |   0 |   0 |      --      | 1.523771e+01 |    Inf | unknown
r 0.1s|     1 |     0 |  1672 |     - |simplero|   0 | 815 |  77 |  77 |   0 |  0 |   0 |   0 |      --      | 1.420535e+01 |    Inf | unknown
r 0.1s|     1 |     0 |  1682 |     - |simplero|   0 | 815 |  77 |  77 |   0 |  0 |   0 |   0 |      --      | 1.417909e+01 |    Inf | unknown
r 0.1s|     1 |     0 |  1683 |     - |simplero|   0 | 815 |  77 |  77 |   0 |  0 |   0 |   0 |      --      | 1.417899e+01 |    Inf | unknown
r 0.1s|     1 |     0 |  1723 |     - |simplero|   0 | 826 |  77 |  77 |   0 |  0 |   0 |   0 |      --      | 1.343709e+01 |    Inf | unknown
r 0.1s|     1 |     0 |  1747 |     - |simplero|   0 | 826 |  77 |  77 |   0 |  0 |   0 |   0 |      --      | 1.332617e+01 |    Inf | unknown
r 0.1s|     1 |     0 |  1751 |     - |simplero|   0 | 826 |  77 |  77 |   0 |  0 |   0 |   0 |      --      | 1.328879e+01 |    Inf | unknown
r 0.1s|     1 |     0 |  1754 |     - |simplero|   0 | 826 |  77 |  77 |   0 |  0 |   0 |   0 |      --      | 1.328842e+01 |    Inf | unknown
r 0.1s|     1 |     0 |  1756 |     - |simplero|   0 | 826 |  77 |  77 |   0 |  0 |   0 |   0 |      --      | 1.328818e+01 |    Inf | unknown
r 0.1s|     1 |     0 |  1812 |     - |simplero|   0 | 837 |  77 |  77 |   0 |  0 |   0 |   0 |      --      | 1.248828e+01 |    Inf | unknown
r 0.1s|     1 |     0 |  1830 |     - |simplero|   0 | 837 |  77 |  77 |   0 |  0 |   0 |   0 |      --      | 1.230431e+01 |    Inf | unknown
r 0.1s|     1 |     0 |  1834 |     - |simplero|   0 | 837 |  77 |  77 |   0 |  0 |   0 |   0 |      --      | 1.229969e+01 |    Inf | unknown
r 0.1s|     1 |     0 |  1835 |     - |simplero|   0 | 837 |  77 |  77 |   0 |  0 |   0 |   0 |      --      | 1.229960e+01 |    Inf | unknown
  0.1s|     1 |     0 |  1883 |     - |  4208k |   0 | 848 |  77 |  77 |   0 |  0 |   0 |   0 |      --      | 1.229960e+01 |    Inf | unknown
r 0.1s|     1 |     0 |  1883 |     - |simplero|   0 | 848 |  77 |  77 |   0 |  0 |   0 |   0 |      --      | 1.161381e+01 |    Inf | unknown
 time | node  | left  |LP iter|LP it/n|mem/heur|mdpt |vars |cons |rows |cuts |sepa|confs|strbr|  dualbound   | primalbound  |  gap   | compl. 
r 0.1s|     1 |     0 |  1911 |     - |simplero|   0 | 848 |  77 |  77 |   0 |  0 |   0 |   0 |      --      | 1.137099e+01 |    Inf | unknown
r 0.1s|     1 |     0 |  1920 |     - |simplero|   0 | 848 |  77 |  77 |   0 |  0 |   0 |   0 |      --      | 1.135272e+01 |    Inf | unknown
r 0.1s|     1 |     0 |  1958 |     - |simplero|   0 | 859 |  77 |  77 |   0 |  0 |   0 |   0 |      --      | 1.080893e+01 |    Inf | unknown
r 0.1s|     1 |     0 |  1976 |     - |simplero|   0 | 859 |  77 |  77 |   0 |  0 |   0 |   0 |      --      | 1.055953e+01 |    Inf | unknown
r 0.1s|     1 |     0 |  2010 |     - |simplero|   0 | 870 |  77 |  77 |   0 |  0 |   0 |   0 |      --      | 1.015547e+01 |    Inf | unknown
r 0.1s|     1 |     0 |  2012 |     - |simplero|   0 | 870 |  77 |  77 |   0 |  0 |   0 |   0 |      --      | 1.015313e+01 |    Inf | unknown
r 0.1s|     1 |     0 |  2053 |     - |simplero|   0 | 881 |  77 |  77 |   0 |  0 |   0 |   0 |      --      | 9.643138e+00 |    Inf | unknown
r 0.1s|     1 |     0 |  2066 |     - |simplero|   0 | 881 |  77 |  77 |   0 |  0 |   0 |   0 |      --      | 9.554343e+00 |    Inf | unknown
r 0.1s|     1 |     0 |  2069 |     - |simplero|   0 | 881 |  77 |  77 |   0 |  0 |   0 |   0 |      --      | 9.552955e+00 |    Inf | unknown
r 0.1s|     1 |     0 |  2103 |     - |simplero|   0 | 892 |  77 |  77 |   0 |  0 |   0 |   0 |      --      | 9.150670e+00 |    Inf | unknown
r 0.1s|     1 |     0 |  2104 |     - |simplero|   0 | 892 |  77 |  77 |   0 |  0 |   0 |   0 |      --      | 9.150639e+00 |    Inf | unknown
r 0.1s|     1 |     0 |  2134 |     - |simplero|   0 | 903 |  77 |  77 |   0 |  0 |   0 |   0 |      --      | 8.882601e+00 |    Inf | unknown
r 0.1s|     1 |     0 |  2148 |     - |simplero|   0 | 903 |  77 |  77 |   0 |  0 |   0 |   0 |      --      | 8.845296e+00 |    Inf | unknown
r 0.1s|     1 |     0 |  2195 |     - |simplero|   0 | 914 |  77 |  77 |   0 |  0 |   0 |   0 |      --      | 8.379932e+00 |    Inf | unknown
r 0.1s|     1 |     0 |  2199 |     - |simplero|   0 | 914 |  77 |  77 |   0 |  0 |   0 |   0 |      --      | 8.378897e+00 |    Inf | unknown
 time | node  | left  |LP iter|LP it/n|mem/heur|mdpt |vars |cons |rows |cuts |sepa|confs|strbr|  dualbound   | primalbound  |  gap   | compl. 
r 0.1s|     1 |     0 |  2227 |     - |simplero|   0 | 925 |  77 |  77 |   0 |  0 |   0 |   0 |      --      | 8.247790e+00 |    Inf | unknown
r 0.1s|     1 |     0 |  2233 |     - |simplero|   0 | 925 |  77 |  77 |   0 |  0 |   0 |   0 |      --      | 8.245181e+00 |    Inf | unknown
r 0.1s|     1 |     0 |  2264 |     - |simplero|   0 | 936 |  77 |  77 |   0 |  0 |   0 |   0 |      --      | 7.993963e+00 |    Inf | unknown
r 0.1s|     1 |     0 |  2279 |     - |simplero|   0 | 936 |  77 |  77 |   0 |  0 |   0 |   0 |      --      | 7.922644e+00 |    Inf | unknown
r 0.1s|     1 |     0 |  2304 |     - |simplero|   0 | 945 |  77 |  77 |   0 |  0 |   0 |   0 |      --      | 7.825000e+00 |    Inf | unknown
r 0.1s|     1 |     0 |  2319 |     - |simplero|   0 | 945 |  77 |  77 |   0 |  0 |   0 |   0 |      --      | 7.794776e+00 |    Inf | unknown
r 0.1s|     1 |     0 |  2349 |     - |simplero|   0 | 953 |  77 |  77 |   0 |  0 |   0 |   0 |      --      | 7.680000e+00 |    Inf | unknown
r 0.1s|     1 |     0 |  2355 |     - |simplero|   0 | 953 |  77 |  77 |   0 |  0 |   0 |   0 |      --      | 7.670124e+00 |    Inf | unknown
r 0.1s|     1 |     0 |  2360 |     - |simplero|   0 | 953 |  77 |  77 |   0 |  0 |   0 |   0 |      --      | 7.660606e+00 |    Inf | unknown
r 0.1s|     1 |     0 |  2388 |     - |simplero|   0 | 961 |  77 |  77 |   0 |  0 |   0 |   0 |      --      | 7.553314e+00 |    Inf | unknown
r 0.1s|     1 |     0 |  2408 |     - |simplero|   0 | 961 |  77 |  77 |   0 |  0 |   0 |   0 |      --      | 7.531847e+00 |    Inf | unknown
r 0.1s|     1 |     0 |  2425 |     - |simplero|   0 | 969 |  77 |  77 |   0 |  0 |   0 |   0 |      --      | 7.486726e+00 |    Inf | unknown
r 0.1s|     1 |     0 |  2438 |     - |simplero|   0 | 969 |  77 |  77 |   0 |  0 |   0 |   0 |      --      | 7.473684e+00 |    Inf | unknown
r 0.1s|     1 |     0 |  2453 |     - |simplero|   0 | 978 |  77 |  77 |   0 |  0 |   0 |   0 |      --      | 7.440000e+00 |    Inf | unknown
r 0.1s|     1 |     0 |  2456 |     - |simplero|   0 | 978 |  77 |  77 |   0 |  0 |   0 |   0 |      --      | 7.439394e+00 |    Inf | unknown
 time | node  | left  |LP iter|LP it/n|mem/heur|mdpt |vars |cons |rows |cuts |sepa|confs|strbr|  dualbound   | primalbound  |  gap   | compl. 
r 0.1s|     1 |     0 |  2468 |     - |simplero|   0 | 983 |  77 |  77 |   0 |  0 |   0 |   0 |      --      | 7.432927e+00 |    Inf | unknown
r 0.1s|     1 |     0 |  2477 |     - |simplero|   0 | 990 |  77 |  77 |   0 |  0 |   0 |   0 |      --      | 7.428571e+00 |    Inf | unknown
r 0.1s|     1 |     0 |  2488 |     - |simplero|   0 | 990 |  77 |  77 |   0 |  0 |   0 |   0 |      --      | 7.425287e+00 |    Inf | unknown
r 0.1s|     1 |     0 |  2492 |     - |simplero|   0 | 991 |  77 |  77 |   0 |  0 |   0 |   0 |      --      | 7.418605e+00 |    Inf | unknown
  0.1s|     1 |     0 |  2494 |     - |  5302k |   0 | 992 |  77 |  77 |   0 |  0 |   0 |   0 | 7.418605e+00 | 7.418605e+00 |   0.00%| unknown
  0.1s|     1 |     0 |  2494 |     - |  5302k |   0 | 992 |  77 |  77 |   0 |  0 |   0 |   0 | 7.418605e+00 | 7.418605e+00 |   0.00%| unknown

SCIP Status        : problem is solved [optimal solution found]
Solving Time (sec) : 0.12
Solving Nodes      : 1
Primal Bound       : +7.41860465116279e+00 (62 solutions)
Dual Bound         : +7.41860465116279e+00
Gap                : 0.00 %

written transformed problem to file <results_rootrelaxation/bin012_070_010.srr.lp>
written transformed problem to file <results_rootrelaxation/bin012_070_010.srr.cip>


SCIP version 8.0.3.5 [precision: 8 byte] [memory: block] [mode: optimized] [LP solver: Soplex 6.0.1.3] [GitHash: 438792519e]
Copyright (c) 2002-2023 Zuse Institute Berlin (ZIB)

External libraries: 
  Readline 8.1         GNU library for command line editing (gnu.org/s/readline)
  Soplex 6.0.1.3       Linear Programming Solver developed at Zuse Institute Berlin (soplex.zib.de) [GitHash: 713be0fe]
  CppAD 20180000.0     Algorithmic Differentiation of C++ algorithms developed by B. Bell (github.com/coin-or/CppAD)
  ZLIB 1.2.11          General purpose compression library by J. Gailly and M. Adler (zlib.net)
  bliss 0.77           Computing Graph Automorphism Groups by T. Junttila and P. Kaski (www.tcs.hut.fi/Software/bliss/)

user parameter file <scip.set> not found - using default parameters

srr/relaxation = TRUE

read problem <instances/bin012_070_010.srr>
============

Original problem: 
original problem has 0 variables (0 bin, 0 int, 0 impl, 0 cont) and 77 constraints

presolving:
presolving (1 rounds: 1 fast, 1 medium, 1 exhaustive):
 0 deleted vars, 0 deleted constraints, 0 added constraints, 0 tightened bounds, 0 added holes, 0 changed sides, 0 changed coefficients
 0 implications, 0 cliques
presolved problem has 0 variables (0 bin, 0 int, 0 impl, 0 cont) and 77 constraints
     77 constraints of type <linear>
Presolving Time: 0.00

 time | node  | left  |LP iter|LP it/n|mem/heur|mdpt |vars |cons |rows |cuts |sepa|confs|strbr|  dualbound   | primalbound  |  gap   | compl. 
  0.0s|     1 |     0 |     1 |     - |   710k |   0 |   1 |  77 |  77 |   0 |  0 |   0 |   0 |      --      |      --      |    Inf | unknown
r 0.1s|     1 |     0 |  1244 |     - |simplero|   0 | 738 |  77 |  77 |   0 |  0 |   0 |   0 |      --      | 2.876626e+01 |    Inf | unknown
r 0.1s|     1 |     0 |  1281 |     - |simplero|   0 | 749 |  77 |  77 |   0 |  0 |   0 |   0 |      --      | 2.653443e+01 |    Inf | unknown
r 0.1s|     1 |     0 |  1352 |     - |simplero|   0 | 760 |  77 |  77 |   0 |  0 |   0 |   0 |      --      | 2.370230e+01 |    Inf | unknown
r 0.1s|     1 |     0 |  1377 |     - |simplero|   0 | 771 |  77 |  77 |   0 |  0 |   0 |   0 |      --      | 2.241146e+01 |    Inf | unknown
r 0.1s|     1 |     0 |  1386 |     - |simplero|   0 | 771 |  77 |  77 |   0 |  0 |   0 |   0 |      --      | 2.230553e+01 |    Inf | unknown
r 0.1s|     1 |     0 |  1394 |     - |simplero|   0 | 771 |  77 |  77 |   0 |  0 |   0 |   0 |      --      | 2.227204e+01 |    Inf | unknown
r 0.1s|     1 |     0 |  1456 |     - |simplero|   0 | 782 |  77 |  77 |   0 |  0 |   0 |   0 |      --      | 2.025206e+01 |    Inf | unknown
r 0.1s|     1 |     0 |  1461 |     - |simplero|   0 | 782 |  77 |  77 |   0 |  0 |   0 |   0 |      --      | 2.023658e+01 |    Inf | unknown
r 0.1s|     1 |     0 |  1463 |     - |simplero|   0 | 782 |  77 |  77 |   0 |  0 |   0 |   0 |      --      | 2.023457e+01 |    Inf | unknown
r 0.1s|     1 |     0 |  1486 |     - |simplero|   0 | 793 |  77 |  77 |   0 |  0 |   0 |   0 |      --      | 1.952570e+01 |    Inf | unknown
r 0.1s|     1 |     0 |  1521 |     - |simplero|   0 | 793 |  77 |  77 |   0 |  0 |   0 |   0 |      --      | 1.817072e+01 |    Inf | unknown
r 0.1s|     1 |     0 |  1541 |     - |simplero|   0 | 793 |  77 |  77 |   0 |  0 |   0 |   0 |      --      | 1.801406e+01 |    Inf | unknown
r 0.1s|     1 |     0 |  1603 |     - |simplero|   0 | 804 |  77 |  77 |   0 |  0 |   0 |   0 |      --      | 1.555177e+01 |    Inf | unknown
r 0.1s|     1 |     0 |  1629 |     - |simplero|   0 | 804 |  77 |  77 |   0 |  0 |   0 |   0 |      --      | 1.524275e+01 |    Inf | unknown
 time | node  | left  |LP iter|LP it/n|mem/heur|mdpt |vars |cons |rows |cuts |sepa|confs|strbr|  dualbound   | primalbound  |  gap   | compl. 
r 0.1s|     1 |     0 |  1636 |     - |simplero|   0 | 804 |  77 |  77 |   0 |  0 |   0 |   0 |      --      | 1.523771e+01 |    Inf | unknown
r 0.1s|     1 |     0 |  1672 |     - |simplero|   0 | 815 |  77 |  77 |   0 |  0 |   0 |   0 |      --      | 1.420535e+01 |    Inf | unknown
r 0.1s|     1 |     0 |  1682 |     - |simplero|   0 | 815 |  77 |  77 |   0 |  0 |   0 |   0 |      --      | 1.417909e+01 |    Inf | unknown
r 0.1s|     1 |     0 |  1683 |     - |simplero|   0 | 815 |  77 |  77 |   0 |  0 |   0 |   0 |      --      | 1.417899e+01 |    Inf | unknown
r 0.1s|     1 |     0 |  1723 |     - |simplero|   0 | 826 |  77 |  77 |   0 |  0 |   0 |   0 |      --      | 1.343709e+01 |    Inf | unknown
r 0.1s|     1 |     0 |  1747 |     - |simplero|   0 | 826 |  77 |  77 |   0 |  0 |   0 |   0 |      --      | 1.332617e+01 |    Inf | unknown
r 0.1s|     1 |     0 |  1751 |     - |simplero|   0 | 826 |  77 |  77 |   0 |  0 |   0 |   0 |      --      | 1.328879e+01 |    Inf | unknown
r 0.1s|     1 |     0 |  1754 |     - |simplero|   0 | 826 |  77 |  77 |   0 |  0 |   0 |   0 |      --      | 1.328842e+01 |    Inf | unknown
r 0.1s|     1 |     0 |  1756 |     - |simplero|   0 | 826 |  77 |  77 |   0 |  0 |   0 |   0 |      --      | 1.328818e+01 |    Inf | unknown
r 0.1s|     1 |     0 |  1812 |     - |simplero|   0 | 837 |  77 |  77 |   0 |  0 |   0 |   0 |      --      | 1.248828e+01 |    Inf | unknown
r 0.1s|     1 |     0 |  1830 |     - |simplero|   0 | 837 |  77 |  77 |   0 |  0 |   0 |   0 |      --      | 1.230431e+01 |    Inf | unknown
r 0.1s|     1 |     0 |  1834 |     - |simplero|   0 | 837 |  77 |  77 |   0 |  0 |   0 |   0 |      --      | 1.229969e+01 |    Inf | unknown
r 0.1s|     1 |     0 |  1835 |     - |simplero|   0 | 837 |  77 |  77 |   0 |  0 |   0 |   0 |      --      | 1.229960e+01 |    Inf | unknown
  0.1s|     1 |     0 |  1883 |     - |  4208k |   0 | 848 |  77 |  77 |   0 |  0 |   0 |   0 |      --      | 1.229960e+01 |    Inf | unknown
r 0.1s|     1 |     0 |  1883 |     - |simplero|   0 | 848 |  77 |  77 |   0 |  0 |   0 |   0 |      --      | 1.161381e+01 |    Inf | unknown
 time | node  | left  |LP iter|LP it/n|mem/heur|mdpt |vars |cons |rows |cuts |sepa|confs|strbr|  dualbound   | primalbound  |  gap   | compl. 
r 0.1s|     1 |     0 |  1911 |     - |simplero|   0 | 848 |  77 |  77 |   0 |  0 |   0 |   0 |      --      | 1.137099e+01 |    Inf | unknown
r 0.1s|     1 |     0 |  1920 |     - |simplero|   0 | 848 |  77 |  77 |   0 |  0 |   0 |   0 |      --      | 1.135272e+01 |    Inf | unknown
r 0.1s|     1 |     0 |  1958 |     - |simplero|   0 | 859 |  77 |  77 |   0 |  0 |   0 |   0 |      --      | 1.080893e+01 |    Inf | unknown
r 0.1s|     1 |     0 |  1976 |     - |simplero|   0 | 859 |  77 |  77 |   0 |  0 |   0 |   0 |      --      | 1.055953e+01 |    Inf | unknown
r 0.1s|     1 |     0 |  2010 |     - |simplero|   0 | 870 |  77 |  77 |   0 |  0 |   0 |   0 |      --      | 1.015547e+01 |    Inf | unknown
r 0.1s|     1 |     0 |  2012 |     - |simplero|   0 | 870 |  77 |  77 |   0 |  0 |   0 |   0 |      --      | 1.015313e+01 |    Inf | unknown
r 0.1s|     1 |     0 |  2053 |     - |simplero|   0 | 881 |  77 |  77 |   0 |  0 |   0 |   0 |      --      | 9.643138e+00 |    Inf | unknown
r 0.1s|     1 |     0 |  2066 |     - |simplero|   0 | 881 |  77 |  77 |   0 |  0 |   0 |   0 |      --      | 9.554343e+00 |    Inf | unknown
r 0.1s|     1 |     0 |  2069 |     - |simplero|   0 | 881 |  77 |  77 |   0 |  0 |   0 |   0 |      --      | 9.552955e+00 |    Inf | unknown
r 0.1s|     1 |     0 |  2103 |     - |simplero|   0 | 892 |  77 |  77 |   0 |  0 |   0 |   0 |      --      | 9.150670e+00 |    Inf | unknown
r 0.1s|     1 |     0 |  2104 |     - |simplero|   0 | 892 |  77 |  77 |   0 |  0 |   0 |   0 |      --      | 9.150639e+00 |    Inf | unknown
r 0.1s|     1 |     0 |  2134 |     - |simplero|   0 | 903 |  77 |  77 |   0 |  0 |   0 |   0 |      --      | 8.882601e+00 |    Inf | unknown
r 0.1s|     1 |     0 |  2148 |     - |simplero|   0 | 903 |  77 |  77 |   0 |  0 |   0 |   0 |      --      | 8.845296e+00 |    Inf | unknown
r 0.1s|     1 |     0 |  2195 |     - |simplero|   0 | 914 |  77 |  77 |   0 |  0 |   0 |   0 |      --      | 8.379932e+00 |    Inf | unknown
r 0.1s|     1 |     0 |  2199 |     - |simplero|   0 | 914 |  77 |  77 |   0 |  0 |   0 |   0 |      --      | 8.378897e+00 |    Inf | unknown
 time | node  | left  |LP iter|LP it/n|mem/heur|mdpt |vars |cons |rows |cuts |sepa|confs|strbr|  dualbound   | primalbound  |  gap   | compl. 
r 0.1s|     1 |     0 |  2227 |     - |simplero|   0 | 925 |  77 |  77 |   0 |  0 |   0 |   0 |      --      | 8.247790e+00 |    Inf | unknown
r 0.1s|     1 |     0 |  2233 |     - |simplero|   0 | 925 |  77 |  77 |   0 |  0 |   0 |   0 |      --      | 8.245181e+00 |    Inf | unknown
r 0.1s|     1 |     0 |  2264 |     - |simplero|   0 | 936 |  77 |  77 |   0 |  0 |   0 |   0 |      --      | 7.993963e+00 |    Inf | unknown
r 0.1s|     1 |     0 |  2279 |     - |simplero|   0 | 936 |  77 |  77 |   0 |  0 |   0 |   0 |      --      | 7.922644e+00 |    Inf | unknown
r 0.1s|     1 |     0 |  2304 |     - |simplero|   0 | 945 |  77 |  77 |   0 |  0 |   0 |   0 |      --      | 7.825000e+00 |    Inf | unknown
r 0.1s|     1 |     0 |  2319 |     - |simplero|   0 | 945 |  77 |  77 |   0 |  0 |   0 |   0 |      --      | 7.794776e+00 |    Inf | unknown
r 0.1s|     1 |     0 |  2349 |     - |simplero|   0 | 953 |  77 |  77 |   0 |  0 |   0 |   0 |      --      | 7.680000e+00 |    Inf | unknown
r 0.1s|     1 |     0 |  2355 |     - |simplero|   0 | 953 |  77 |  77 |   0 |  0 |   0 |   0 |      --      | 7.670124e+00 |    Inf | unknown
r 0.1s|     1 |     0 |  2360 |     - |simplero|   0 | 953 |  77 |  77 |   0 |  0 |   0 |   0 |      --      | 7.660606e+00 |    Inf | unknown
r 0.1s|     1 |     0 |  2388 |     - |simplero|   0 | 961 |  77 |  77 |   0 |  0 |   0 |   0 |      --      | 7.553314e+00 |    Inf | unknown
r 0.1s|     1 |     0 |  2408 |     - |simplero|   0 | 961 |  77 |  77 |   0 |  0 |   0 |   0 |      --      | 7.531847e+00 |    Inf | unknown
r 0.1s|     1 |     0 |  2425 |     - |simplero|   0 | 969 |  77 |  77 |   0 |  0 |   0 |   0 |      --      | 7.486726e+00 |    Inf | unknown
r 0.1s|     1 |     0 |  2438 |     - |simplero|   0 | 969 |  77 |  77 |   0 |  0 |   0 |   0 |      --      | 7.473684e+00 |    Inf | unknown
r 0.1s|     1 |     0 |  2453 |     - |simplero|   0 | 978 |  77 |  77 |   0 |  0 |   0 |   0 |      --      | 7.440000e+00 |    Inf | unknown
r 0.1s|     1 |     0 |  2456 |     - |simplero|   0 | 978 |  77 |  77 |   0 |  0 |   0 |   0 |      --      | 7.439394e+00 |    Inf | unknown
 time | node  | left  |LP iter|LP it/n|mem/heur|mdpt |vars |cons |rows |cuts |sepa|confs|strbr|  dualbound   | primalbound  |  gap   | compl. 
r 0.1s|     1 |     0 |  2468 |     - |simplero|   0 | 983 |  77 |  77 |   0 |  0 |   0 |   0 |      --      | 7.432927e+00 |    Inf | unknown
r 0.1s|     1 |     0 |  2477 |     - |simplero|   0 | 990 |  77 |  77 |   0 |  0 |   0 |   0 |      --      | 7.428571e+00 |    Inf | unknown
r 0.1s|     1 |     0 |  2488 |     - |simplero|   0 | 990 |  77 |  77 |   0 |  0 |   0 |   0 |      --      | 7.425287e+00 |    Inf | unknown
r 0.1s|     1 |     0 |  2492 |     - |simplero|   0 | 991 |  77 |  77 |   0 |  0 |   0 |   0 |      --      | 7.418605e+00 |    Inf | unknown
  0.1s|     1 |     0 |  2494 |     - |  5302k |   0 | 992 |  77 |  77 |   0 |  0 |   0 |   0 | 7.418605e+00 | 7.418605e+00 |   0.00%| unknown
  0.1s|     1 |     0 |  2494 |     - |  5302k |   0 | 992 |  77 |  77 |   0 |  0 |   0 |   0 | 7.418605e+00 | 7.418605e+00 |   0.00%| unknown

SCIP Status        : problem is solved [optimal solution found]
Solving Time (sec) : 0.14
Solving Nodes      : 1
Primal Bound       : +7.41860465116279e+00 (62 solutions)
Dual Bound         : +7.41860465116279e+00
Gap                : 0.00 %

written transformed problem to file <results_rootrelaxation/bin012_070_010.srr.lp>
written transformed problem to file <results_rootrelaxation/bin012_070_010.srr.cip>

written solution information to file <results_rootrelaxation/bin012_070_010.srr.sol>



